set Z;
 set Y;
 param A{r in Z, m in Y} default 0, binary;
param B{r in Z} default 1, integer;
 var Route{m in Y}, binary;
 minimize cost: sum{m in Y} Route[m];
 subject to covers{r in Z}: sum{m in Y} A[r,m]*Route[m]>=B[r];
 solve; 
 printf {m in Y:  Route[m] == 1} "%s ", m > "C:/Users/Guilherme/Documents/GitHub/SirisOnRails/SirisOnRails/Results.txt";
 data;
set Z:= Z1 Z2 Z3 Z4 Z5 Z6 Z7 Z8 Z9 Z10 Z11 Z12 Z13 Z14 Z15 Z16 Z17 Z18 Z19 Z20 Z21 Z22 Z23 Z24 Z25 Z26 Z27 Z28 Z29 Z30 Z31 Z32 Z33 Z34 Z35 Z36 Z37 Z38 Z39 Z40 Z41 Z42 Z43 Z44 Z45 Z46 Z47 Z48 Z49 Z50 Z51 Z52 Z53 Z54 Z55 Z56 Z57 Z58 Z59 Z60 Z61 Z62 Z63 Z64 Z65 Z66 Z67 Z68 Z69 Z70 Z71 Z72 ;
set Y:= Y1 Y2 Y3 Y4 Y5 Y6 Y7 Y8 Y9 Y10 Y11 Y12 Y13 Y14 Y15 Y16 Y17 Y18 Y19 Y20 Y21 Y22 Y23 Y24 Y25 Y26 Y27 Y28 Y29 Y30 Y31 Y32 Y33 Y34 Y35 Y36 Y37 Y38 Y39 Y40 Y41 Y42 Y43 Y44 Y45 Y46 Y47 Y48 Y49 Y50 Y51 Y52 Y53 Y54 Y55 Y56 Y57 Y58 Y59 Y60 Y61 Y62 Y63 Y64 Y65 Y66 Y67 Y68 Y69 Y70 Y71 Y72 Y73 Y74 Y75 Y76 Y77 Y78 Y79 Y80 Y81 Y82 Y83 Y84 Y85 Y86 Y87 Y88 Y89 Y90 Y91 Y92 Y93 Y94 Y95 Y96 Y97 Y98 Y99 Y100 Y101 Y102 Y103 Y104 Y105 Y106 Y107 Y108 Y109 Y110 Y111 Y112 Y113 Y114 Y115 Y116 Y117 Y118 Y119 Y120 Y121 Y122 Y123 Y124 Y125 Y126 Y127 Y128 Y129 Y130 Y131 Y132 Y133 Y134 Y135 Y136 Y137 Y138 Y139 Y140 Y141 Y142 Y143 Y144 Y145 Y146 Y147 Y148 Y149 Y150 Y151 Y152 Y153 Y154 Y155 Y156 Y157 Y158 Y159 Y160 Y161 Y162 Y163 Y164 Y165 Y166 Y167 Y168 Y169 Y170 Y171 Y172 Y173 Y174 Y175 Y176 Y177 Y178 Y179 Y180 Y181 Y182 Y183 Y184 Y185 Y186 Y187 Y188 Y189 Y190 Y191 Y192 Y193 Y194 Y195 Y196 Y197 Y198 Y199 Y200 Y201 Y202 Y203 Y204 Y205 Y206 Y207 Y208 Y209 Y210 Y211 Y212 Y213 Y214 Y215 Y216 Y217 Y218 Y219 Y220 Y221 Y222 Y223 Y224 Y225 Y226 Y227 Y228 Y229 Y230 Y231 Y232 Y233 Y234 Y235 Y236 Y237 Y238 Y239 Y240 Y241 Y242 Y243 Y244 Y245 Y246 Y247 Y248 Y249 Y250 Y251 Y252 Y253 Y254 Y255 Y256 Y257 Y258 Y259 Y260 Y261 Y262 Y263 Y264 Y265 Y266 Y267 Y268 Y269 Y270 Y271 Y272 Y273 Y274 Y275 Y276 Y277 Y278 Y279 Y280 Y281 Y282 Y283 Y284 Y285 Y286 Y287 Y288 Y289 Y290 Y291 Y292 Y293 Y294 Y295 Y296 Y297 Y298 Y299 Y300 ;
param A := 
[Z1,Y2] 1[Z1,Y3] 1[Z1,Y7] 1[Z1,Y8] 1[Z1,Y9] 1[Z1,Y10] 1[Z1,Y13] 1[Z1,Y15] 1[Z1,Y16] 1[Z2,Y2] 1[Z2,Y3] 1[Z2,Y7] 1[Z2,Y8] 1[Z2,Y9] 1[Z2,Y10] 1[Z2,Y13] 1[Z2,Y15] 1[Z2,Y16] 1[Z3,Y15] 1[Z3,Y16] 1[Z3,Y17] 1[Z3,Y21] 1[Z3,Y22] 1[Z3,Y23] 1[Z3,Y119] 1[Z3,Y120] 1[Z4,Y15] 1[Z4,Y16] 1[Z4,Y17] 1[Z4,Y21] 1[Z4,Y22] 1[Z4,Y23] 1[Z4,Y119] 1[Z4,Y120] 1[Z5,Y11] 1[Z5,Y12] 1[Z5,Y17] 1[Z5,Y18] 1[Z5,Y24] 1[Z5,Y27] 1[Z5,Y38] 1[Z5,Y43] 1[Z5,Y44] 1[Z5,Y49] 1[Z5,Y50] 1[Z5,Y55] 1[Z6,Y11] 1[Z6,Y12] 1[Z6,Y17] 1[Z6,Y18] 1[Z6,Y24] 1[Z6,Y27] 1[Z6,Y38] 1[Z6,Y43] 1[Z6,Y44] 1[Z6,Y49] 1[Z6,Y50] 1[Z6,Y55] 1[Z7,Y11] 1[Z7,Y12] 1[Z7,Y17] 1[Z7,Y18] 1[Z7,Y24] 1[Z7,Y27] 1[Z7,Y38] 1[Z7,Y43] 1[Z7,Y44] 1[Z7,Y49] 1[Z7,Y50] 1[Z7,Y55] 1[Z8,Y10] 1[Z8,Y11] 1[Z8,Y28] 1[Z8,Y29] 1[Z9,Y39] 1[Z9,Y40] 1[Z9,Y41] 1[Z9,Y58] 1[Z9,Y59] 1[Z9,Y60] 1[Z10,Y39] 1[Z10,Y40] 1[Z10,Y44] 1[Z10,Y45] 1[Z10,Y46] 1[Z10,Y47] 1[Z10,Y49] 1[Z10,Y50] 1[Z10,Y51] 1[Z10,Y52] 1[Z10,Y53] 1[Z10,Y55] 1[Z10,Y88] 1[Z10,Y89] 1[Z10,Y90] 1[Z11,Y39] 1[Z11,Y40] 1[Z11,Y44] 1[Z11,Y45] 1[Z11,Y46] 1[Z11,Y47] 1[Z11,Y49] 1[Z11,Y50] 1[Z11,Y51] 1[Z11,Y52] 1[Z11,Y53] 1[Z11,Y55] 1[Z11,Y88] 1[Z11,Y89] 1[Z11,Y90] 1[Z12,Y39] 1[Z12,Y40] 1[Z12,Y44] 1[Z12,Y45] 1[Z12,Y46] 1[Z12,Y47] 1[Z12,Y49] 1[Z12,Y50] 1[Z12,Y51] 1[Z12,Y52] 1[Z12,Y53] 1[Z12,Y55] 1[Z12,Y88] 1[Z12,Y89] 1[Z12,Y90] 1[Z13,Y41] 1[Z13,Y42] 1[Z13,Y47] 1[Z13,Y48] 1[Z13,Y53] 1[Z13,Y54] 1[Z13,Y128] 1[Z13,Y133] 1[Z13,Y134] 1[Z13,Y139] 1[Z13,Y140] 1[Z13,Y145] 1[Z14,Y41] 1[Z14,Y42] 1[Z14,Y47] 1[Z14,Y48] 1[Z14,Y53] 1[Z14,Y54] 1[Z14,Y128] 1[Z14,Y133] 1[Z14,Y134] 1[Z14,Y139] 1[Z14,Y140] 1[Z14,Y145] 1[Z15,Y41] 1[Z15,Y42] 1[Z15,Y47] 1[Z15,Y48] 1[Z15,Y53] 1[Z15,Y54] 1[Z15,Y128] 1[Z15,Y133] 1[Z15,Y134] 1[Z15,Y139] 1[Z15,Y140] 1[Z15,Y145] 1[Z16,Y39] 1[Z16,Y40] 1[Z16,Y41] 1[Z16,Y58] 1[Z16,Y59] 1[Z16,Y60] 1[Z17,Y62] 1[Z17,Y63] 1[Z17,Y64] 1[Z17,Y67] 1[Z17,Y68] 1[Z17,Y69] 1[Z17,Y70] 1[Z17,Y73] 1[Z17,Y74] 1[Z17,Y75] 1[Z17,Y79] 1[Z17,Y89] 1[Z17,Y90] 1[Z18,Y62] 1[Z18,Y63] 1[Z18,Y64] 1[Z18,Y67] 1[Z18,Y68] 1[Z18,Y69] 1[Z18,Y70] 1[Z18,Y73] 1[Z18,Y74] 1[Z18,Y75] 1[Z18,Y79] 1[Z18,Y89] 1[Z18,Y90] 1[Z19,Y74] 1[Z19,Y75] 1[Z19,Y76] 1[Z19,Y77] 1[Z19,Y79] 1[Z19,Y80] 1[Z19,Y81] 1[Z19,Y82] 1[Z19,Y83] 1[Z19,Y85] 1[Z19,Y300] 1[Z20,Y74] 1[Z20,Y75] 1[Z20,Y76] 1[Z20,Y77] 1[Z20,Y79] 1[Z20,Y80] 1[Z20,Y81] 1[Z20,Y82] 1[Z20,Y83] 1[Z20,Y85] 1[Z20,Y300] 1[Z21,Y65] 1[Z21,Y66] 1[Z21,Y71] 1[Z21,Y72] 1[Z21,Y77] 1[Z21,Y78] 1[Z21,Y83] 1[Z21,Y84] 1[Z21,Y87] 1[Z21,Y157] 1[Z21,Y162] 1[Z21,Y163] 1[Z21,Y168] 1[Z21,Y169] 1[Z21,Y174] 1[Z21,Y175] 1[Z21,Y180] 1[Z22,Y65] 1[Z22,Y66] 1[Z22,Y71] 1[Z22,Y72] 1[Z22,Y77] 1[Z22,Y78] 1[Z22,Y83] 1[Z22,Y84] 1[Z22,Y87] 1[Z22,Y157] 1[Z22,Y162] 1[Z22,Y163] 1[Z22,Y168] 1[Z22,Y169] 1[Z22,Y174] 1[Z22,Y175] 1[Z22,Y180] 1[Z23,Y65] 1[Z23,Y66] 1[Z23,Y71] 1[Z23,Y72] 1[Z23,Y77] 1[Z23,Y78] 1[Z23,Y83] 1[Z23,Y84] 1[Z23,Y87] 1[Z23,Y157] 1[Z23,Y162] 1[Z23,Y163] 1[Z23,Y168] 1[Z23,Y169] 1[Z23,Y174] 1[Z23,Y175] 1[Z23,Y180] 1[Z24,Y64] 1[Z24,Y65] 1[Z24,Y66] 1[Z24,Y71] 1[Z24,Y87] 1[Z24,Y88] 1[Z24,Y89] 1[Z25,Y91] 1[Z25,Y92] 1[Z25,Y93] 1[Z25,Y94] 1[Z25,Y97] 1[Z25,Y98] 1[Z25,Y99] 1[Z25,Y103] 1[Z25,Y120] 1[Z26,Y98] 1[Z26,Y99] 1[Z26,Y100] 1[Z26,Y103] 1[Z26,Y104] 1[Z26,Y105] 1[Z26,Y106] 1[Z26,Y107] 1[Z26,Y109] 1[Z26,Y111] 1[Z26,Y112] 1[Z26,Y113] 1[Z26,Y264] 1[Z26,Y265] 1[Z27,Y98] 1[Z27,Y99] 1[Z27,Y100] 1[Z27,Y103] 1[Z27,Y104] 1[Z27,Y105] 1[Z27,Y106] 1[Z27,Y107] 1[Z27,Y109] 1[Z27,Y111] 1[Z27,Y112] 1[Z27,Y113] 1[Z27,Y264] 1[Z27,Y265] 1[Z28,Y98] 1[Z28,Y99] 1[Z28,Y100] 1[Z28,Y103] 1[Z28,Y104] 1[Z28,Y105] 1[Z28,Y106] 1[Z28,Y107] 1[Z28,Y109] 1[Z28,Y111] 1[Z28,Y112] 1[Z28,Y113] 1[Z28,Y264] 1[Z28,Y265] 1[Z29,Y74] 1[Z29,Y79] 1[Z29,Y80] 1[Z29,Y85] 1[Z29,Y108] 1[Z29,Y113] 1[Z29,Y114] 1[Z29,Y261] 1[Z29,Y262] 1[Z29,Y266] 1[Z30,Y62] 1[Z30,Y67] 1[Z30,Y93] 1[Z30,Y94] 1[Z30,Y95] 1[Z30,Y96] 1[Z30,Y100] 1[Z30,Y101] 1[Z30,Y102] 1[Z30,Y107] 1[Z30,Y108] 1[Z30,Y117] 1[Z30,Y118] 1[Z30,Y119] 1[Z31,Y62] 1[Z31,Y67] 1[Z31,Y93] 1[Z31,Y94] 1[Z31,Y95] 1[Z31,Y96] 1[Z31,Y100] 1[Z31,Y101] 1[Z31,Y102] 1[Z31,Y107] 1[Z31,Y108] 1[Z31,Y117] 1[Z31,Y118] 1[Z31,Y119] 1[Z32,Y62] 1[Z32,Y67] 1[Z32,Y93] 1[Z32,Y94] 1[Z32,Y95] 1[Z32,Y96] 1[Z32,Y100] 1[Z32,Y101] 1[Z32,Y102] 1[Z32,Y107] 1[Z32,Y108] 1[Z32,Y117] 1[Z32,Y118] 1[Z32,Y119] 1[Z33,Y129] 1[Z33,Y130] 1[Z33,Y131] 1[Z33,Y134] 1[Z33,Y135] 1[Z33,Y136] 1[Z33,Y139] 1[Z33,Y140] 1[Z33,Y141] 1[Z33,Y142] 1[Z33,Y145] 1[Z33,Y154] 1[Z33,Y155] 1[Z33,Y190] 1[Z34,Y129] 1[Z34,Y130] 1[Z34,Y131] 1[Z34,Y134] 1[Z34,Y135] 1[Z34,Y136] 1[Z34,Y139] 1[Z34,Y140] 1[Z34,Y141] 1[Z34,Y142] 1[Z34,Y145] 1[Z34,Y154] 1[Z34,Y155] 1[Z34,Y190] 1[Z35,Y129] 1[Z35,Y130] 1[Z35,Y131] 1[Z35,Y134] 1[Z35,Y135] 1[Z35,Y136] 1[Z35,Y139] 1[Z35,Y140] 1[Z35,Y141] 1[Z35,Y142] 1[Z35,Y145] 1[Z35,Y154] 1[Z35,Y155] 1[Z35,Y190] 1[Z36,Y131] 1[Z36,Y132] 1[Z36,Y137] 1[Z36,Y138] 1[Z36,Y142] 1[Z36,Y143] 1[Z36,Y144] 1[Z36,Y147] 1[Z36,Y148] 1[Z36,Y149] 1[Z36,Y187] 1[Z36,Y188] 1[Z36,Y189] 1[Z37,Y131] 1[Z37,Y132] 1[Z37,Y137] 1[Z37,Y138] 1[Z37,Y142] 1[Z37,Y143] 1[Z37,Y144] 1[Z37,Y147] 1[Z37,Y148] 1[Z37,Y149] 1[Z37,Y151] 1[Z37,Y152] 1[Z37,Y187] 1[Z37,Y188] 1[Z37,Y189] 1[Z38,Y131] 1[Z38,Y132] 1[Z38,Y137] 1[Z38,Y138] 1[Z38,Y142] 1[Z38,Y143] 1[Z38,Y144] 1[Z38,Y147] 1[Z38,Y148] 1[Z38,Y149] 1[Z38,Y151] 1[Z38,Y152] 1[Z38,Y187] 1[Z38,Y188] 1[Z38,Y189] 1[Z39,Y131] 1[Z39,Y132] 1[Z39,Y137] 1[Z39,Y138] 1[Z39,Y143] 1[Z39,Y144] 1[Z39,Y147] 1[Z39,Y148] 1[Z39,Y149] 1[Z39,Y151] 1[Z39,Y152] 1[Z39,Y187] 1[Z40,Y129] 1[Z40,Y130] 1[Z40,Y131] 1[Z40,Y134] 1[Z40,Y135] 1[Z40,Y136] 1[Z40,Y139] 1[Z40,Y140] 1[Z40,Y141] 1[Z40,Y142] 1[Z40,Y145] 1[Z40,Y154] 1[Z40,Y155] 1[Z40,Y190] 1[Z41,Y157] 1[Z41,Y158] 1[Z41,Y159] 1[Z41,Y162] 1[Z41,Y163] 1[Z41,Y164] 1[Z41,Y165] 1[Z41,Y168] 1[Z41,Y190] 1[Z42,Y163] 1[Z42,Y164] 1[Z42,Y168] 1[Z42,Y169] 1[Z42,Y170] 1[Z42,Y171] 1[Z42,Y172] 1[Z42,Y174] 1[Z42,Y176] 1[Z42,Y177] 1[Z42,Y178] 1[Z42,Y228] 1[Z42,Y229] 1[Z43,Y163] 1[Z43,Y164] 1[Z43,Y168] 1[Z43,Y169] 1[Z43,Y170] 1[Z43,Y171] 1[Z43,Y172] 1[Z43,Y174] 1[Z43,Y176] 1[Z43,Y177] 1[Z43,Y178] 1[Z43,Y228] 1[Z43,Y229] 1[Z44,Y163] 1[Z44,Y164] 1[Z44,Y168] 1[Z44,Y169] 1[Z44,Y170] 1[Z44,Y171] 1[Z44,Y172] 1[Z44,Y174] 1[Z44,Y176] 1[Z44,Y177] 1[Z44,Y178] 1[Z44,Y228] 1[Z44,Y229] 1[Z45,Y173] 1[Z45,Y178] 1[Z45,Y179] 1[Z45,Y181] 1[Z45,Y182] 1[Z45,Y183] 1[Z45,Y226] 1[Z45,Y227] 1[Z46,Y160] 1[Z46,Y161] 1[Z46,Y166] 1[Z46,Y167] 1[Z46,Y172] 1[Z46,Y173] 1[Z46,Y183] 1[Z46,Y184] 1[Z46,Y185] 1[Z46,Y187] 1[Z47,Y160] 1[Z47,Y161] 1[Z47,Y166] 1[Z47,Y167] 1[Z47,Y172] 1[Z47,Y173] 1[Z47,Y183] 1[Z47,Y184] 1[Z47,Y185] 1[Z47,Y187] 1[Z48,Y158] 1[Z48,Y159] 1[Z48,Y160] 1[Z48,Y165] 1[Z48,Y166] 1[Z48,Y189] 1[Z49,Y192] 1[Z49,Y193] 1[Z49,Y194] 1[Z49,Y197] 1[Z49,Y198] 1[Z49,Y199] 1[Z49,Y203] 1[Z49,Y230] 1[Z50,Y199] 1[Z50,Y200] 1[Z50,Y204] 1[Z50,Y205] 1[Z50,Y206] 1[Z50,Y209] 1[Z50,Y210] 1[Z50,Y211] 1[Z50,Y212] 1[Z50,Y213] 1[Z50,Y215] 1[Z50,Y218] 1[Z50,Y219] 1[Z51,Y199] 1[Z51,Y200] 1[Z51,Y204] 1[Z51,Y205] 1[Z51,Y206] 1[Z51,Y209] 1[Z51,Y210] 1[Z51,Y211] 1[Z51,Y212] 1[Z51,Y213] 1[Z51,Y215] 1[Z51,Y218] 1[Z51,Y219] 1[Z52,Y199] 1[Z52,Y200] 1[Z52,Y204] 1[Z52,Y205] 1[Z52,Y206] 1[Z52,Y209] 1[Z52,Y210] 1[Z52,Y211] 1[Z52,Y212] 1[Z52,Y213] 1[Z52,Y215] 1[Z52,Y218] 1[Z52,Y219] 1[Z53,Y208] 1[Z53,Y213] 1[Z53,Y214] 1[Z53,Y220] 1[Z53,Y221] 1[Z53,Y222] 1[Z54,Y201] 1[Z54,Y202] 1[Z54,Y207] 1[Z54,Y208] 1[Z54,Y223] 1[Z54,Y224] 1[Z55,Y181] 1[Z55,Y195] 1[Z55,Y196] 1[Z55,Y202] 1[Z55,Y224] 1[Z55,Y225] 1[Z55,Y226] 1[Z55,Y227] 1[Z56,Y193] 1[Z56,Y194] 1[Z56,Y195] 1[Z56,Y200] 1[Z56,Y228] 1[Z56,Y229] 1[Z57,Y231] 1[Z57,Y232] 1[Z57,Y233] 1[Z57,Y234] 1[Z57,Y237] 1[Z57,Y239] 1[Z57,Y264] 1[Z57,Y265] 1[Z58,Y238] 1[Z58,Y239] 1[Z58,Y240] 1[Z58,Y243] 1[Z58,Y244] 1[Z58,Y245] 1[Z58,Y246] 1[Z58,Y247] 1[Z58,Y249] 1[Z58,Y250] 1[Z58,Y251] 1[Z58,Y252] 1[Z58,Y253] 1[Z58,Y255] 1[Z58,Y258] 1[Z58,Y259] 1[Z59,Y238] 1[Z59,Y239] 1[Z59,Y240] 1[Z59,Y243] 1[Z59,Y244] 1[Z59,Y245] 1[Z59,Y246] 1[Z59,Y247] 1[Z59,Y249] 1[Z59,Y250] 1[Z59,Y251] 1[Z59,Y252] 1[Z59,Y253] 1[Z59,Y255] 1[Z59,Y258] 1[Z59,Y259] 1[Z60,Y238] 1[Z60,Y239] 1[Z60,Y240] 1[Z60,Y243] 1[Z60,Y244] 1[Z60,Y245] 1[Z60,Y246] 1[Z60,Y247] 1[Z60,Y249] 1[Z60,Y250] 1[Z60,Y251] 1[Z60,Y252] 1[Z60,Y253] 1[Z60,Y255] 1[Z60,Y258] 1[Z60,Y259] 1[Z61,Y248] 1[Z61,Y253] 1[Z61,Y254] 1[Z61,Y260] 1[Z61,Y279] 1[Z61,Y284] 1[Z61,Y285] 1[Z61,Y290] 1[Z61,Y291] 1[Z62,Y241] 1[Z62,Y242] 1[Z62,Y247] 1[Z62,Y248] 1[Z62,Y254] 1[Z62,Y273] 1[Z62,Y278] 1[Z62,Y279] 1[Z62,Y284] 1[Z63,Y235] 1[Z63,Y236] 1[Z63,Y241] 1[Z63,Y242] 1[Z63,Y262] 1[Z63,Y267] 1[Z63,Y272] 1[Z63,Y273] 1[Z63,Y278] 1[Z64,Y233] 1[Z64,Y234] 1[Z64,Y235] 1[Z64,Y240] 1[Z64,Y241] 1[Z64,Y263] 1[Z64,Y264] 1[Z65,Y268] 1[Z65,Y269] 1[Z65,Y270] 1[Z65,Y274] 1[Z65,Y275] 1[Z65,Y276] 1[Z65,Y280] 1[Z65,Y281] 1[Z65,Y298] 1[Z65,Y299] 1[Z66,Y268] 1[Z66,Y269] 1[Z66,Y270] 1[Z66,Y274] 1[Z66,Y275] 1[Z66,Y276] 1[Z66,Y280] 1[Z66,Y281] 1[Z66,Y298] 1[Z66,Y299] 1[Z67,Y280] 1[Z67,Y281] 1[Z67,Y282] 1[Z67,Y285] 1[Z67,Y286] 1[Z67,Y287] 1[Z67,Y288] 1[Z67,Y290] 1[Z67,Y292] 1[Z67,Y293] 1[Z68,Y280] 1[Z68,Y281] 1[Z68,Y282] 1[Z68,Y285] 1[Z68,Y286] 1[Z68,Y287] 1[Z68,Y288] 1[Z68,Y290] 1[Z68,Y292] 1[Z68,Y293] 1[Z69,Y210] 1[Z69,Y215] 1[Z69,Y216] 1[Z69,Y283] 1[Z69,Y288] 1[Z69,Y289] 1[Z69,Y295] 1[Z70,Y198] 1[Z70,Y203] 1[Z70,Y204] 1[Z70,Y209] 1[Z70,Y276] 1[Z70,Y277] 1[Z70,Y282] 1[Z70,Y283] 1[Z71,Y191] 1[Z71,Y192] 1[Z71,Y197] 1[Z71,Y270] 1[Z71,Y271] 1[Z71,Y277] 1[Z71,Y296] 1[Z71,Y297] 1[Z72,Y268] 1[Z72,Y269] 1[Z72,Y270] 1[Z72,Y274] 1[Z72,Y275] 1[Z72,Y276] 1[Z72,Y280] 1[Z72,Y281] 1[Z72,Y298] 1[Z72,Y299] 1
;
param B := 

;
end;
